30 61
29
6 18 20 4
2 12 13 10
10 7 0 21
4 23 26 0
4 1 18 25
7 7 10 25
11 4 15 0
6 5 0 56
2 7 11 16
6 11 17 26
10 19 0 37
11 5 0 16
4 2 11 23
7 5 6 56
4 2 13 49
7 12 10 37
7 13 23 23
3 6 10 10
6 10 9 0
9 16 0 0
1 4 22 22
4 10 13 51
6 24 17 37
9 9 0 28
2 1 13 22
8 5 9 32
3 5 10 51
7 25 23 36
5 21 15 4
